50
    16     3    32    97     1    85     4    99    25    83    29    95    95    62    86    83    86    80    70     3    38    83    91    35    57     9    74    98    14    86    62    54    45    33    11     5    54    59    94    93     8    65   100   100    40    41    33    51    51    68
     8     1     6     6    10     8     1     1    10     3     6    10     2     6     8    10     2    10     9     2     4     8     4     8     4    10     5     1     7     2     7     8     5     8    10     8     4     8    10     1     7     1     6     1     6     3     2     3     6     5
     0   417     0     0     0   557     0   604   584     0   806     0     0     0   164   663   372     0     0     0     0   579     0  1141   127  1181   795   776   222  1094  1163     0     0   254     0     0     0     0   527  1210   767   642     0   411  1015     0  1081     0     0     0
